0 3980 
1 3976 
2 3976 
3 3975 
4 3973 
5 3970 
6 3965 
7 3964 
8 3960 
9 3959 
10 3957 
11 3955 
12 3954 
13 3952 
14 3950 
15 3949 
16 3947 
17 3946 
18 3943 
19 3943 
20 3942 
21 3942 
22 3939 
23 3934 
24 3933 
25 3932 
26 3928 
27 3927 
28 3926 
29 3925 
30 3924 
31 3921 
32 3920 
33 3920 
34 3919 
35 3915 
36 3911 
37 3910 
38 3909 
39 3908 
40 3905 
41 3904 
42 3903 
43 3902 
44 3900 
45 3899 
46 3898 
47 3891 
48 3886 
49 3880 
50 3876 
51 3875 
52 3872 
53 3871 
54 3868 
55 3867 
56 3865 
57 3863 
58 3862 
59 3857 
60 3855 
61 3852 
62 3849 
63 3847 
64 3846 
65 3843 
66 3839 
67 3835 
68 3834 
69 3834 
70 3832 
71 3828 
72 3827 
73 3825 
74 3821 
75 3818 
76 3818 
77 3808 
78 3801 
79 3799 
80 3793 
81 3792 
82 3790 
83 3789 
84 3787 
85 3781 
86 3779 
87 3776 
88 3775 
89 3769 
90 3769 

